RLSolver/data/tsplib/ulysses16.opt.tour
NAME : ulysses16.opt.tour
COMMENT : Optimal solution for ulysses16 (6859)
TYPE : TOUR
DIMENSION : 16
TOUR_SECTION
1 14 13 12 7 6 15 5 11 9 10 16 3 2 4 8
-1
EOF

